100
32
16
28
10
22
14
8
13
11
29
11
7
32
20
6
7
7
22
15
16
30
8
10
7
30
8
30
9
24
23
31
26
10
10
5
27
5
15
16
29
32
2
3
30
29
19
32
2
9
4
2
2
5
15
23
21
17
1
25
5
4
18
5
9
1
17
19
6
6
3
18
28
5
11
31
19
20
8
19
9
29
8
4
9
18
31
10
20
5
12
25
19
5
5
12
20
29
20
12
5
18